# ---------Initialize Simulation---------
clear
units 		metal
dimension 	3
boundary 	p p p   #p indicates that the boundary (x,y,z) is periodic  s is shrink-wrapped
atom_style 	atomic
atom_modify 	map array

# ---------Create Atoms-------------------
# Si is a diamond lattice
# lattice constant: 5.5 AA

lattice diamond 5.46
region 		FIXEDHALF block 0 4 0 4 0 3 units lattice
region 		MOBILEHALF block 0 4 0 4 3 6 units lattice
region 		ATOMICBOX union 2 FIXEDHALF MOBILEHALF
create_box 	2 ATOMICBOX

#create the silicon atoms
lattice diamond 5.46 orient x 1 0 0 orient y 0 1 0 orient z 0  0 1
mass 		1 28.0855
create_atoms 	1 region ATOMICBOX

#create the hydrogen atoms
mass		2 1.00784
create_atoms	2 random 10 14530 MOBILEHALF

group 		fixedatoms region FIXEDHALF
group 		mobileatoms region MOBILEHALF
group		hydrogens type 2
group		silicons type 1

# ----------Define interatomic potential --------------
pair_style 	tersoff
pair_coeff 	* * SiH_DUG_TersoffPRB.tersoff Si H
#neighbor 	4.0 bin
#neigh_modify 	delay 10 check yes

delete_atoms	overlap 1.0 hydrogens silicons #when creating atoms at random, some hydrogens may overlap with the silicons, so we delete the offenders

# ---------Create bonds --------------  NEED TO FIGURE OUT HOW TO DO THIS
#create_bonds 	many all all 1 1.0 1.2

# ----------Dump xyz file with atoms and bonds -----------
# Read with Ovito or jmol
dump 		1 all atom 1000 aSicSiH.xyz
#dump_modify 	1 element Si H

# ------- Initialize conditions ----------
#set initial temperature to be 2000K
velocity 	mobileatoms create 2000.0 15046 mom yes rot yes dist gaussian  # mom and rot yes means net linear and angular momentum is zero	
timestep 	.0001 #.1fs

# ------- Display conditions each 1000 step
thermo_style 	custom step temp pe ke etotal lz
thermo 		100

# --------Run simulation -------------
#Stabilize the simulation at 2000K
fix		1 mobileatoms nvt temp 2000.0 2000.0 0.1
run		100000 #10 ps
unfix 		1

#Cool the sample to 300K
fix 		2 mobileatoms nvt temp 2000.0 300.0 0.1
run 		30000 #cooling rate of 4.3e12 K/s
unfix 		2

#Anneal the sample at 2000K
#fix 		3 mobileatoms nvt temp 2000.0 2000.0 0.1
#run 		150000
#unfix 		3

#Cool the sample back down to 300K
#fix		4 mobileatoms nvt temp 2000.0 300.0 0.1
#run 		1000000
#unfix		4


# --------- Run Energy Minimization -------------
minimize 	1.0e-4 1.0e-6 1000 100000
#Alternative is to use fix viscous to drain the kinetic energy out of the system

# --------- Output final snapshot ---------------
write_dump	all atom aSicSiHydrogenated.xyz

