# ---------Initialize Simulation---------
clear
units 		metal
dimension 	3
boundary 	p p p   #p indicates that the boundary (x,y,z) is periodic  s is shrink-wrapped
atom_style 	atomic
atom_modify 	map array

# ---------Create Atoms-------------------
# Si is a diamond lattice
# lattice constant: 5.5 AA

lattice diamond 5.43
region 		FIXEDHALF block 0 3 0 3 0 0.5 units lattice
region 		MOBILEHALF block 0 3 0 3 0.5 4 units lattice
region		PUREAMORPHOUS block 0 3 0 3 1.5 3 units lattice
region		PURECRYSTALLINE block 0 3 0 3 0 1 units lattice
region 		ATOMICBOX union 2 FIXEDHALF MOBILEHALF
create_box 	1 ATOMICBOX

lattice diamond 5.43 orient x 1 0 0 orient y 0 1 0 orient z 0  0 1
mass 		1 28.0855
create_atoms 	1 region ATOMICBOX
group 		fixedatoms region FIXEDHALF
group 		mobileatoms region MOBILEHALF
group		puremobile region PUREAMORPHOUS
group		purecrystalline region PURECRYSTALLINE

# ----------Define interatomic potential --------------
#pair_style 	tersoff
#pair_coeff 	* * SiH_DUG_TersoffPRB.tersoff Si
#pair_coeff	* * potentials/Si.tersoff Si
#pair_coeff 	* * potentials/SiCGe.tersoff Si(D)
pair_style	tersoff/mod/c
pair_coeff	* * potentials/Si.tersoff.modc Si
#neighbor 	4.0 bin
#neigh_modify 	delay 10 check yes

# ---------Define Potential Energy Outputs for Excess Energy Calculation --------------
compute		pe_aSi mobileatoms pe/atom
compute		pe_aSitotal mobileatoms reduce sum c_pe_aSi
variable	pe_aSiAverage equal c_pe_aSitotal/count(mobileatoms)

compute		pe_cSi fixedatoms pe/atom
compute		pe_cSitotal fixedatoms reduce sum c_pe_cSi
variable	pe_cSiAverage equal c_pe_cSitotal/count(fixedatoms)

compute		pe_aSi_pure puremobile pe/atom
compute		pe_aSi_puretotal puremobile reduce sum c_pe_aSi_pure
variable	pe_aSi_pureAverage equal c_pe_aSi_puretotal/count(puremobile)

compute		pe_cSi_pure purecrystalline pe/atom
compute		pe_cSi_puretotal purecrystalline reduce sum c_pe_cSi_pure
variable	pe_cSi_pureAverage equal c_pe_cSi_puretotal/count(purecrystalline)

variable	excessEnergy equal v_pe_aSiAverage-v_pe_cSiAverage
fix		pe_output all ave/time 100 5 10000 v_pe_aSiAverage v_pe_cSiAverage v_pe_aSi_pureAverage v_pe_cSi_pureAverage v_excessEnergy file potentialEnergy_modc.output


# ----------Dump xyz file with atoms and bonds -----------
# Read with Ovito or jmol
dump 		1 all atom 10000 cSiaSi_modc.xyz
#dump_modify 	1 element Si

# ------- Initialize conditions ----------
#set initial temperature to be 100K
velocity 	mobileatoms create 3000.0 15046 mom yes rot yes dist gaussian  # mom and rot yes means net linear and angular momentum is zero
timestep 	.0001

#mod/c will melt 1-3 ratio at 2500K

# ------- Display conditions each 1000 step
thermo_style 	custom step temp pe ke etotal lz
thermo 		100

# --------Run simulation -------------
#Stabilize the simulation at 2200K
fix		1 mobileatoms nvt temp 3000.0 3000.0 0.1
#fix		1 mobileatoms langevin 3600.0 3600.0 0.1 15046
#fix		2 mobileatoms nve
run		250000 #anneal for 20 ps
unfix 		1
#unfix		2

#Cool the sample down to 300K
#fix		3 mobileatoms langevin 3000.0 300.0 1.0 12046
#fix		4 mobileatoms nve
fix		3 mobileatoms nvt temp 3000.0 300.0 0.1
run 		4500000 #cooling rate of exactly 6*10^12 K/s
unfix		3
#unfix		4

#Anneal the sample at 300K
#fix		5 mobileatoms langevin 300.0 300.0 0.1 18035
#fix		6 mobileatoms nve
fix		stable fixedatoms langevin 300.0 300.0 0.1 16801
fix		stablenve fixedatoms nve
fix		4 mobileatoms nvt temp 300.0 300.0 0.1
run		250000 #anneal for 25 ps
unfix		4
#unfix		6 

#Cool the sample to 0K
fix		5 mobileatoms langevin 300.0 0.0 0.1 13051
fix		6 mobileatoms nve
run		500000 #cooling rate of exactly 6*10^12 K/s
unfix		5
unfix		6

# --------- Run Energy Minimization -------------
#minimize 	1.0e-4 1.0e-6 1000 100000
#fix		7 mobileatoms viscous 0.1
#Alternative is to use fix viscous to drain the kinetic energy out of the system

# --------- Output final snapshot ---------------
write_dump	all atom aSicSiInterface_modc.xyz

