# ---------Initialize Simulation---------
clear
units 		metal
dimension 	3
boundary 	p p p   #p indicates that the boundary (x,y,z) is periodic  s is shrink-wrapped
atom_style 	atomic
atom_modify 	map array

# ---------Create Atoms-------------------
# Si is a diamond lattice
# lattice constant: 5.5 AA

lattice diamond 5.43
region		AmorphousBox block 0 3 0 3 0.5 4 units lattice
create_box 	1 AmorphousBox

#lattice diamond 5.43 orient x 1 0 0 orient y 0 1 0 orient z 0  0 1
mass 		1 28.0855
#create_atoms 	1 region AmorphousBox

# ----------Define interatomic potential --------------
pair_style 	tersoff/mod/c
pair_coeff 	* * potentials/Si.tersoff.modc Si
#neighbor 	4.0 bin
#neigh_modify 	delay 10 check yes

# ---------Read in the already created amorphous structure --------------  NEED TO FIGURE OUT HOW TO DO THIS
read_dump	aSi.xyz 0 x y z scaled yes box yes add yes # trim no #3850000
#group 		mobileatoms region AmorphousBox

# ----------Dump xyz file with atoms and bonds -----------
# Read with Ovito or jmol
dump 		1 all atom 100 aSiReadIn.xyz
#dump_modify 	1 element Si

# ------- Initialize conditions ----------
#set initial temperature of deposited a-Si to be 1600K, so that we avoid a large strain on the system
velocity  	all create 1600.0 15046 mom yes rot yes dist gaussian  # mom and rot yes means net linear and angular momentum is zero
timestep 	.0001 #.1 fs

# ------- Display conditions each 1000 step
thermo_style 	custom step temp pe ke etotal
thermo 		100

# --------Run simulation -------------
#Quench the a-Si from 1600K down to 300K
fix		1 all nvt temp 1600.0 300.0 0.1
run		21500 #Quench rate of 6x10^12 K/s
unfix 		1

#Here we will allow all atoms to move, to relieve any lingering stress along the interface
fix		2 all nvt temp 300.0 300.0 0.1
run 		2500 #anneal for 25 ps
unfix 		2

#Here we now quench the entire structure to 0K using Langevin methods, to be as relaxed as possible for the DFT analysis
fix		3 all langevin 300.0 0.0 0.1 16829
fix		4 all nve
run 		5000
unfix		3
unfix		4


# --------- Run Energy Minimization -------------
#minimize 	1.0e-4 1.0e-6 1000 100000
#Alternative is to use fix viscous to drain the kinetic energy out of the system


# --------- Dump xyz file with atoms of only the final state ------------
write_dump	all atom aSicSiInterfaceSnapshot.xyz

