BEGIN
BEGIN_PATH_INPUT
&PATH
  restart_mode	= 'from_scratch'
  string_method	= 'neb',
  nstep_path	= 20,
  ds		= 1.D0,
  opt_scheme	= "broyden",
  num_of_images	= 7,
  CI_scheme	= "no-CI",
  path_thr	= 0.05D0,
/
END_PATH_INPUT
BEGIN_ENGINE_INPUT
&CONTROL
  prefix='silicon',
/

&SYSTEM
  ibrav = 0,
  nat = 432,
  ntyp = 1,
  ecutwfc = 44.0,
/

&ELECTRONS
/

ATOMIC_SPECIES
Si  28.086  Si.pbe-n-kjpaw_psl.1.0.0.UPF

CELL_PARAMETERS { angstrom }
   16.289992147572  0  0
   0  16.289992147572  0
   0  0  34.51225900923967

K_POINTS automatic
   2 2 2  1 1 1
BEGIN_POSITIONS
FIRST_IMAGE
ATOMIC_POSITIONS { angstrom }
   Si 5.740628534 10.549439757 0.2485536
   Si 7.95297199 14.013183927 -0.045951913
   Si 2.252060001 3.07327102 0.302783785
   Si 0.552096518 4.786777336 0.289341949
   Si 5.871582368 5.074568972 0.256817612
   Si 7.516828772 8.865852971 0.332216952
   Si 12.268962278 1.320163285 1.057867618
   Si 6.828320353 1.362175431 1.015302692
   Si 12.224355116 6.70394326 1.160454511
   Si 3.834158502 9.523488232 1.201543103
   Si 1.205447601 12.224723488 1.29132429
   Si 1.32556135 6.836755287 1.19315133
   Si 9.502317826 4.249382118 1.20536827
   Si 14.839906443 9.369198031 1.223025103
   Si 12.243344327 12.259941798 1.271380459
   Si 4.049590756 14.949055587 1.233541087
   Si 14.802803117 15.076367561 1.364479225
   Si 9.646408171 14.981108486 1.312222203
   Si 14.871402242000002 3.998599735 1.389506548
   Si 9.474288558 9.585422339 1.43276324
   Si 6.803967184 12.365068238 1.387565906
   Si 4.080863751 4.067533166 1.400454261
   Si 6.750020063 6.907840792 1.417310486
   Si 1.221508048 1.323180651 1.460494318
   Si 10.85008959 2.719893448 2.539408822
   Si 5.471666633 2.618564241 2.628660698
   Si 8.179193299 0.070254549 2.599480148
   Si 10.882532207 8.104319626 2.636720224
   Si 16.245787076 8.110146207 2.668509084
   Si 2.711430451 5.511474536 2.67034704
   Si 10.867516711 13.543884083 2.708504016
   Si 13.577360622 10.839186622 2.630589312
   Si 2.640049322 10.92822065 2.6783255260000005
   Si 13.551693860999999 5.45865765 2.687147974
   Si 5.263505672000001 8.213862825 2.675450009
   Si 5.320734975 13.645539982 2.724546129
   Si 16.173746764 13.659207286 2.738071483
   Si 13.503865921 0.072547969 2.752904852
   Si 8.146657653 10.97525189 2.76776238
   Si 2.702574857 16.237978203 2.767803794
   Si 8.166547733 5.546058147 2.768204137
   Si 16.241920381 2.763075888 2.781280832
   Si 14.932514522 1.357516722 4.072446563
   Si 14.932498232 12.217494111 4.072446563
   Si 1.357493916 14.932498232 4.072446563
   Si 9.502473699 1.357528125 4.072481075
   Si 6.787534738 4.072498037 4.072481075
   Si 12.217526691 4.072514327 4.072481075
   Si 9.502489989 6.787485868 4.072481075
   Si 14.932498232 6.787485868 4.072481075
   Si 1.357518351 9.502489989 4.072481075
   Si 9.502489989 12.217494111 4.072481075
   Si 4.072481747 6.787534738 4.072515588
   Si 12.217526691 9.502489989 4.072515588
   Si 6.787534738 9.502506279 4.072515588
   Si 4.072498037 12.217526691 4.072515588
   Si 12.217510401 14.932481942000003 4.072515588
   Si 6.787469578 14.932498232 4.072515588
   Si 4.072514327 1.357464594 4.0725501
   Si 1.357453191 4.072498037 4.0725501
   Si 4.918e-06 1.3766999999999999e-05 5.429986271
   Si 2.715004121 2.715004121 5.429986271
   Si 13.575004316 2.715004121 5.429986271
   Si 5.429991952 5.429991952 5.429986271
   Si 10.860000195 5.429991952 5.429986271
   Si 8.144996074 8.144996074 5.429986271
   Si 5.429991952 10.860000195 5.429986271
   Si 2.715004121 13.575004316 5.429986271
   Si 8.144996074 13.575004316 5.429986271
   Si 5.429991952 16.289992148 5.429986271
   Si 10.860000195 16.289992148 5.429986271
   Si 8.145012364 2.715004121 5.430020783
   Si 16.289992148 5.429991952 5.430020783
   Si 2.714987831 8.144996074 5.430020783
   Si 13.575004316 8.144996074 5.430020783
   Si 10.860000195 10.860000195 5.430020783
   Si 16.289992148 10.860000195 5.430020783
   Si 13.575004316 13.574988026 5.430020783
   Si 1.357500432 1.357500432 6.787491467
   Si 6.787502158 1.357500432 6.787491467
   Si 12.217494111 1.357500432 6.787491467
   Si 4.072498037 4.072498037 6.787491467
   Si 9.502506279 4.072498037 6.787491467
   Si 14.932498232 4.072498037 6.787491467
   Si 1.357500432 6.787502158 6.787491467
   Si 6.787502158 6.787502158 6.787491467
   Si 12.217494111 6.787502158 6.787491467
   Si 4.072498037 9.502506279 6.787491467
   Si 9.502506279 9.502506279 6.787491467
   Si 14.932498232 9.502506279 6.787491467
   Si 1.357500432 12.217494111 6.787491467
   Si 6.787502158 12.217494111 6.787491467
   Si 12.217494111 12.217494111 6.787491467
   Si 4.072498037 14.932498232 6.787491467
   Si 9.502506279 14.932498232 6.787491467
   Si 14.932498232 14.932498232 6.787491467
   Si 8.144996074 1.6e-08 8.144996663
   Si 13.575004316 4.53e-07 8.144996663
   Si 2.715004121 1.261e-06 8.144996663
   Si 1.94e-07 2.715004121 8.144996663
   Si 5.429991952 2.715004121 8.144996663
   Si 10.860000195 2.715004121 8.144996663
   Si 2.715004121 5.429991952 8.144996663
   Si 8.144996074 5.429991952 8.144996663
   Si 13.575004316 5.429991952 8.144996663
   Si 3.5e-08 8.144996074 8.144996663
   Si 5.429991952 8.144996074 8.144996663
   Si 10.860000195 8.144996074 8.144996663
   Si 2.715004121 10.860000195 8.144996663
   Si 8.144996074 10.860000195 8.144996663
   Si 13.575004316 10.860000195 8.144996663
   Si 1.94e-07 13.575004316 8.144996663
   Si 5.429991952 13.575004316 8.144996663
   Si 10.860000195 13.575004316 8.144996663
   Si 14.932498232 1.357498803 9.502467347
   Si 9.502506279 6.787502158 9.502467347
   Si 6.787502158 9.502506279 9.502467347
   Si 4.072498037 1.357498803 9.502501859
   Si 9.502506279 1.357502061 9.502501859
   Si 6.787502158 4.072498037 9.502501859
   Si 12.217494111 4.072498037 9.502501859
   Si 4.072498037 6.787502158 9.502501859
   Si 14.932498232 6.787502158 9.502501859
   Si 1.357508577 9.502506279 9.502501859
   Si 12.217510401 9.502506279 9.502501859
   Si 9.502489989 12.217494111 9.502501859
   Si 14.932498232 12.217510401 9.502501859
   Si 1.357493916 14.932498232 9.502501859
   Si 6.787502158 14.932498232 9.502501859
   Si 12.217510401 14.932498232 9.502501859
   Si 1.357498803 4.072498037 9.502536371
   Si 4.072498037 12.217494111 9.502536371
   Si 5.429943083 10.860016484999997 10.859903518
   Si 5.430008242 1.1727e-05 10.859972542
   Si 10.859983905 5.429959372 10.859972542
   Si 2.715020411 13.574988026 10.859972542
   Si 8.145044944 2.714971541 10.860007055
   Si 13.574988026 2.715004121 10.860007055
   Si 5.429975663 5.430024533 10.860007055
   Si 8.144996074 8.144996074 10.860007055
   Si 10.859983905 10.860032775 10.860007055
   Si 13.575020606 13.574988026 10.860007055
   Si 8.145012364 13.575004316 10.860007055
   Si 16.289975858 16.289975858 10.860007055
   Si 10.859983905 9.307e-06 10.860041567
   Si 2.715004121 2.715004121 10.860041567
   Si 16.289992148 5.430024533 10.860041567
   Si 13.575036896 8.144979784 10.860041567
   Si 2.715020411 8.144996074 10.860041567
   Si 16.289992148 10.859983905 10.860041567
   Si 4.072416587 9.502506279 12.217374202
   Si 6.787469578 12.217591851 12.217408714
   Si 1.357482513 6.787485868 12.217443226
   Si 12.217510401 1.35756885 12.217477738
   Si 14.932514522 4.072432877 12.217477738
   Si 4.072514327 4.072465457 12.217477738
   Si 14.932514522 9.502538859 12.217477738
   Si 1.357482513 1.3574874 12.217512251
   Si 9.502473699 4.072498037 12.217512251
   Si 6.787583608 6.787436998 12.217512251
   Si 12.217494111 12.217526691 12.217512251
   Si 1.357497174 12.217542981 12.217512251
   Si 4.072449167 14.932498232 12.217512251
   Si 14.932563392 14.932498232 12.217512251
   Si 9.502489989 14.932514522 12.217512251
   Si 12.217380081 6.787534738 12.217546763
   Si 9.502522569 9.502441119 12.217546763
   Si 6.787518448 1.357521609 12.217581275
   Si 10.979259228 2.823397729 13.442731958
   Si 5.537538481 2.848370287 13.561902788
   Si 0.043483365 8.161302356 13.573705981
   Si 5.411402532 13.607699434 13.669780659
   Si 13.503849287 16.186064187 13.564096674999998
   Si 8.240720293 0.104584637 13.617009316
   Si 2.637645445 5.468071156 13.686639745
   Si 2.8611905200000005 0.226165561 13.661351352
   Si 13.629753376 5.459706821 13.651261806
   Si 16.328294958 2.832404922 13.698860605
   Si 2.791728983 10.840886997 13.60049962
   Si 5.421740964 8.201415789000002 13.730988919
   Si 8.252839263 5.606892944 13.667664544
   Si 16.179083835 13.39346244 13.788615121
   Si 10.788484944 13.567102659 13.748689386
   Si 13.514903164 10.738789048 13.659456973
   Si 10.917992708 8.119526565 13.832139803
   Si 8.155620354 10.888362897 13.861912373
   Si 6.248697632 15.630203278 14.758707154999998
   Si 1.930267354 8.970725356 14.799767821
   Si 15.161787879 1.044505929 14.744535616
   Si 9.785500383 1.44964669 14.895444713
   Si 12.423142488 3.867586226 14.969834542
   Si 15.288615147 6.568545817 14.978969103
   Si 6.854887487 4.245504109 14.921195351
   Si 3.608810536 7.237661033 14.970942966
   Si 1.072947247 16.208771476 15.187983101
   Si 4.55188104 11.834867213 15.102680415
   Si 0.769073042 4.78750996 15.108758948
   Si 12.125213942 14.989146898 15.125973744
   Si 4.674714194 1.221719095 15.023317313
   Si 6.271642496 9.978538865 15.199049679
   Si 14.809549159999998 11.986658681 15.185934592
   Si 12.508152537 9.276524377 15.276075203999998
   Si 9.687053742 6.654330881 15.364164769
   Si 9.809051026 12.017652615 15.430038354
   Si 13.515743076 2.094558717 16.166070992
   Si 0.96615199 13.947570325 15.935316441
   Si 8.668591705 3.175440658 16.027261429
   Si 10.607623409 4.637949013 16.33056648
   Si 13.074323565 13.17871173 16.358017213
   Si 11.459487551 0.698448841 16.537641929
   Si 2.460558341 12.019513711 16.548354271
   Si 14.289570266 8.120587941 16.662218555
   Si 7.379600558 15.832037669 16.744359069
   Si 5.583833194 4.890639912 16.82526739
   Si 15.530231474 10.265480419 16.833463017
   Si 11.750156614 11.091348772 16.729561536
   Si 0.922105673 1.293451388 17.093878882
   Si 1.52683033 9.740252323 16.980678039
   Si 15.398734297 2.859886168 17.432956703
   Si 4.763491889 2.617719709 17.202765078
   Si 3.703614327 6.358461719 17.263959808
   Si 5.670762191 12.398080547 17.34753149
   Si 1.52419382 5.057648149 17.425685523
   Si 8.156588062 1.571528987 17.658033419
   Si 2.490348101 2.88936026 17.865092341
   Si 6.475956975 10.200934874 17.871553548
   Si 9.345515013 12.63858767 17.827231839
   Si 9.236790761 7.057624916 17.952086025
   Si 0.658241511 15.35048713 18.001815794
   Si 7.353580859 13.9192014 18.018435082
   Si 6.9678354 6.169363913 18.301193133
   Si 3.637734108 12.79061682 18.394824663
   Si 13.033650204 14.263987178 18.507462901
   Si 10.657168514 5.162090667 18.668873734
   Si 10.177570508 1.21320758 18.803042587
   Si 6.341718114999999 2.163274088 18.996899324
   Si 15.691302356 10.925046134 19.142673119
   Si 14.307076563 7.255676532 19.188298325
   Si 8.46395412 10.794416687 19.20227579
   Si 1.625428448 8.338195381 19.252767225
   Si 0.258083975 6.342133773 19.291904127
   Si 2.473895947 14.554879924 19.304984273000002
   Si 10.793227517 13.939362571 19.322930648
   Si 11.986273962 10.296154697 19.498839632
   Si 14.658256214 2.169712924 19.544913498
   Si 9.998715730000002 9.016005664 19.557510472
   Si 3.762450616 7.506184032 19.564240363
   Si 14.774078058 13.004577661 19.615042408
   Si 13.63048803 0.045687238 19.805308492
   Si 5.094874234 9.48158993 19.823599989
   Si 15.669734407 15.139723222 19.952192666
   Si 12.605489144 5.714415215 19.9705877
   Si 2.521853684 2.285942018 20.101906846
   Si 3.491222247 0.116060004 20.150741692
   Si 9.929043434 3.374553323 20.155987556
   Si 7.271966525 14.906222475 20.182872605
   Si 3.541020753 11.32613832 20.186634442
   Si 14.107882539 9.467890046 20.1890503
   Si 9.499492631 15.680469511 20.233709163
   Si 1.33264842 10.37286427 20.372655518
   Si 5.775681876 0.40325224 20.392672628
   Si 6.482195125 5.627442947 20.547253036
   Si 7.573184769 3.504742941 20.623145494
   Si 11.584465016 12.250953755 20.767751859
   Si 13.916247072 3.964381359 20.817484024
   Si 0.340310968 2.521576754 20.935619487
   Si 16.163663259 4.856225849 21.099725278
   Si 4.205000833 5.911035421 21.339999625
   Si 7.917424883 11.201063761 21.442362986
   Si 3.122742625 14.618687823 21.561361255
   Si 13.69170582 12.683632236 21.695613942
   Si 6.57692143 9.218213336 21.727261684
   Si 2.894373225 3.949410856 21.741515247
   Si 9.996044171 8.197205499 21.744966473
   Si 6.796608264 13.233843011 21.765190656
   Si 7.836854582 7.169323284 21.76646761
   Si 4.508287907 12.767118446 21.815751116
   Si 11.729950936 6.624064667 22.010020622
   Si 12.733952022 0.186901596 22.039701165
   Si 15.989392923 15.571342854 22.295816639
   Si 10.437307479 15.871925789 22.332986342
   Si 14.435816371 10.483310417 22.334539393
   Si 10.010069855 11.808452408 22.393831453999997
   Si 10.803881172 3.311103804 22.458507428
   Si 0.54727206 10.169141628 22.567428117
   Si 13.088959821 2.594930589 22.61574528
   Si 5.673592495 0.995828397 22.683906991
   Si 7.50903478 2.42733915 22.770256663
   Si 15.8696289 6.411219629 22.851567546
   Si 1.413352299 14.242617064 23.032722393
   Si 13.953632604 14.669300829 23.050358157000005
   Si 0.183369926 1.509143969 23.112169613
   Si 3.556121576 7.19965525 23.279899192
   Si 13.618091345 7.272357484 23.297914591
   Si 3.888746926 2.487498091 23.338570032
   Si 9.617285564 1.503906736 23.359587997999995
   Si 1.252829087 8.037400676 23.412391754
   Si 10.581229559 9.806982523 23.4578444
   Si 9.91539242 13.876939321 23.561657275
   Si 10.461807627 5.382555495 23.643209743
   Si 5.415721919 8.655817647 23.689732268
   Si 1.541259688 11.999762076 23.696220572
   Si 12.949729258 9.489800086 23.875580783
   Si 8.077783566 6.008384414 23.888246782
   Si 7.561602585 13.792654901 23.95758191
   Si 3.871023414 12.269524346 24.015527993
   Si 14.810746831 2.732108613 24.294870217
   Si 6.184300039 15.713880285 24.394231011
   Si 7.185580696 3.923297999 24.549570688999996
   Si 2.102875086 1.44842791 24.603375301
   Si 15.689689647 4.948948484 24.716471973
   Si 2.375927935 15.379658516 24.878541542
   Si 4.844562215 3.903326468 24.953260582
   Si 5.057211772 10.525338596 24.972587448
   Si 4.440098 14.335877269 25.10570123
   Si 7.170968573 11.644004937 25.109635628
   Si 3.536850515 5.845842872 25.254138457
   Si 6.775626754 7.481781623 25.3266142
   Si 9.199707905 10.343135034 25.343076548
   Si 13.6088875 14.153070978 25.375449047
   Si 13.785145215 6.214534264 25.401367753
   Si 11.199874591 13.869722854 25.540245084
   Si 10.18653934 1.573999314 25.664627265
   Si 0.802655154 8.016793836 25.743970949
   Si 11.590182803 5.41541241 25.769855143
   Si 0.820867365 11.922612673 25.878534246
   Si 1.283508029 5.670171597 26.048265536
   Si 13.627181161 10.014370413 26.070525943
   Si 14.765623552 12.105630735 26.155219027
   Si 8.101143415 2.464235982 26.272526195
   Si 6.290885457 0.910493273 26.311732121999995
   Si 11.855481615 3.099773736 26.456787146
   Si 14.073054536 2.07484001 26.481843046
   Si 14.867256813 7.98688541 26.542757183
   Si 8.535336866 8.431944286 26.600737779000003
   Si 1.471088918 14.076980424 26.627484779
   Si 10.369508531 11.94965406 26.667933147
   Si 10.453858111 15.759345653 26.808639627
   Si 4.838404598 7.131041803 26.808915724999995
   Si 4.635349846 2.571277521 26.85467898
   Si 1.733108555 9.899672578 26.921908861
   Si 2.270059276 2.230311695 26.960597103
   Si 4.176379317 9.506464748 26.974402007
   Si 14.08611911 15.942754675 26.974850666
   Si 10.234057247 6.818176213 27.297816386
   Si 5.174662616 13.962917899 27.329705713
   Si 6.743730949 12.247288506 27.341957565
   Si 11.920266914 10.489174814 27.649668867
   Si 16.241154751 15.340481085 27.84573301
   Si 1.127314698 4.202052344 27.893221878
   Si 8.813993471 12.949159108 28.161416643000003
   Si 6.424528553 15.794173657 28.191304259
   Si 15.230947178 3.205039665 28.337187578
   Si 3.073090729 13.752858451 28.348473086999995
   Si 8.747986423 15.295080877 28.409525273
   Si 12.201041219 15.707136228 28.433994465
   Si 8.04991139 3.347577096 28.438860693
   Si 15.036933372 11.884542961 28.487592003
   Si 5.748168079 10.47524687 28.495840432999998
   Si 5.737661034 3.723501245 28.605692952999995
   Si 1.487041707 0.680025722 28.610593694
   Si 7.684054456 9.10654544 28.702223742
   Si 0.17187082 9.987003226 28.716063158
   Si 11.407686021 3.399867971 28.733491848
   Si 11.184171039 8.532730467 28.743189793
   Si 9.617790554 5.010019665 28.757167258000003
   Si 15.370096291 7.921432222 28.868745391
   Si 5.343231454 6.029561404 28.950504933
   Si 12.912408886 11.604094456 29.480233597
   Si 16.070549663 13.720148146 29.539076998
   Si 11.494576839 1.242729292 29.774588654
   Si 13.465128319 3.958500672 29.791844783
   Si 3.017883945 15.636844912 29.797849916
   Si 13.23537427 8.021126973 29.834294862
   Si 16.254805764 1.792452996 29.959574362
   Si 7.081422487 7.296662153 30.023698139
   Si 12.3443117 13.865666646 30.065319924000004
   Si 9.515098443 9.757591267 30.099832183
   Si 1.902117223 12.651361762 30.108149637000004
   Si 1.7593517320000003 4.970760784 30.125819914
   Si 5.233648677 0.213863162 30.14286897
   Si 9.141568923 12.117587589 30.262246873
   Si 9.447543846 0.235242148 30.365231454
   Si 5.836280647 2.440191954 30.594461879
   Si 8.222259507 2.213744773 30.607507513
   Si 0.361520538 6.884134392 30.70493562
   Si 1.079936884 10.513055942 30.774546846000003
   Si 5.326061803 10.730869427 30.781035151
   Si 8.903995678 5.927537183 30.787972115
   Si 3.957621012 5.530550074 30.843985511
   Si 13.107041712 5.980821747 30.999635799
   Si 14.426791716 14.536472233 31.004812638
   Si 13.346716366 9.960189899 31.153111815
   Si 13.108035401 2.005069973 31.386276637
   Si 14.964784996 0.471137524 31.395629459
   Si 0.754089801 3.328485226 31.513902971
   Si 10.470327293 13.590512389 31.557250367999995
   Si 5.748575329 8.543107192 31.623962565
   Si 10.110807166 8.281441048 31.856989338
   Si 7.582958765 11.34731531 31.905927721
   Si 1.803399871 8.503880891 31.945651331
   Si 11.044142266 5.862279474 31.993795933
   Si 8.061982274 4.139840864 32.003321316
   Si 4.321155607 3.41207976 31.964311658
   Si 3.5457421330000005 13.318425739 32.254911475
   Si 2.446435978 16.149745525 32.084141583
   Si 15.487202645 11.014699714 32.285224794
   Si 3.930960409 7.287288604 32.488292175
   Si 4.747561102 15.445369305 32.285673106
   Si 14.820222841 6.445875198 32.493710492
   Si 9.544843903 15.524721386 32.556724424
   Si 5.806732355 5.146083201 32.464602309
   Si 2.437605867 2.206871797 32.641236565
   Si 7.901233357 8.974203248 32.593072913
   Si 5.391940266 11.883133524 32.805093064
   Si 15.065979951000001 13.376020916 32.895899038
   Si 15.440789133 4.200112172 33.019316728
   Si 11.952863119 9.391778566 32.986396561
   Si 9.380519575 12.377241647 33.315240689
   Si 0.735318327 14.963277794 33.352267384
   Si 13.592614948 7.967210558 34.174038198
   Si 14.057013081999997 2.43700532 34.19225705
   Si 11.355800505 15.739168174 34.260821525
   Si 0.187698404 10.480214309 34.47753333
   Si 1.921707359 8.755607679 34.34982697
   Si 10.806622134 10.872790613 34.490328852
   Si 11.215376093 5.096405311 34.276019828
   Si 13.25946607 13.976021218 34.466167802
   Si 15.825113332 0.449038967 34.477601129
   Si 7.658320785 3.446720712 34.429354376
   Si 5.952572825 15.643884565 34.381623871
   Si 2.464652958 13.701602987 34.425144768
LAST_IMAGE
ATOMIC_POSITIONS { angstrom }
   Si 2.252058834417534 3.0732699185609333 0.3027836409850417
   Si 1.221508319184116 1.3231806761739717 1.4604932279789051
   Si 6.828324878474199 1.3621756593768297 1.015302342889218
   Si 4.080871092856852 4.06752958928799 1.4004557022064321
   Si 5.471661752440107 2.6185673677457566 2.6286607196977485
   Si 4.072514326885147 1.3574645936477518 4.072550099867309
   Si 1.3575004316304766 1.3575004316304766 6.787491467088157
   Si 2.715004121259383 1.2610001471474749e-06 8.14499666295759
   Si 1.9400077448386447e-07 2.715004121259383 8.14499666295759
   Si 4.91799749932843e-06 1.376699816375605e-05 5.4299862712187235
   Si 2.715004121259383 2.715004121259383 5.4299862712187235
   Si 5.429991952526618 4.2799836668766246e-10 5.4299862712187235
   Si 6.787502158152383 1.3575004316304766 6.787491467088157
   Si 5.429991952526618 2.715004121259383 8.14499666295759
   Si 2.715004121259383 2.715004121259383 10.860041566955466
   Si 1.3574825126391141 1.3574873996367587 12.21751225056589
   Si 5.430008242518766 1.1727002447115608e-05 10.859972542437447
   Si 4.072514326885147 4.072465456908705 12.21747773830688
   Si 6.78751844814453 1.3575216086202684 12.217581275083909
   Si 4.072498036893 1.3574988026312618 9.502501858827022
   Si 0.9221064085078164 1.293451440504653 17.0938873750174
   Si 2.8611905107916935 0.2261653639792454 13.66136711847644
   Si 0.038302821436507525 2.832406094666934 13.698847431760473
   Si 4.674706466604442 1.2217184600828197 15.023324395758067
   Si 4.76348692380871 2.6177202881540826 17.20277355219155
   Si 5.537538480684888 2.8483702869715546 13.561902788011812
   Si 0.3403109679564972 2.5215767544991126 20.935619486630912
   Si 2.4903488395522175 2.8893559072148456 17.86509831483787
   Si 2.5218536843656216 2.285942018084484 20.10190684574471
   Si 3.4912222470911884 0.11606000385443442 20.150741692242782
   Si 5.775681875890243 0.40325223961628587 20.392672627897557
   Si 7.573184769421927 3.5047429405736734 20.623145493561257
   Si 6.341710233041928 2.1632783772132664 18.996893336786876
   Si 2.894373224796298 3.949410856225946 21.741515246755668
   Si 0.183369925608359 1.5091439685322243 23.112169613307625
   Si 3.888746925468388 2.487498090926392 23.33857003240823
   Si 2.10287508633007 1.4484279097997939 24.60337530057885
   Si 5.67359249510141 0.9958283969708682 22.68390699126197
   Si 7.509034780344789 2.427339149925409 22.770256663303087
   Si 7.185580696262599 3.9232979988133883 24.549570688783444
   Si 4.844562214727175 3.903326468440465 24.95326058241452
   Si 2.2700592757406013 2.2303116949005255 26.96059710316893
   Si 1.4870417071863986 0.6800257222003931 28.61059369414167
   Si 8.101143414924737 2.464235982139659 26.27252619530172
   Si 6.290885457541503 0.9104932731058123 26.311732121536213
   Si 4.635349845575909 2.571277520541355 26.854678980269572
   Si 8.049911389620624 3.3475770963338984 28.438860693311693
   Si 5.73766103421781 3.7235012451234177 28.605692953362357
   Si 5.233648677171932 0.213863161909399 30.14286896963389
   Si 0.754089800498544 3.3284852255369444 31.513902971034945
   Si 2.4376018449783787 2.2068703962001694 32.641245911571765
   Si 5.836280646679211 2.440191953729843 30.594461878769792
   Si 4.321148477033539 3.4120854652382837 31.964322463364535
   Si 7.658316268385139 3.446717988544022 34.42936056309948
   Si 0.5520971558670807 4.7867816125797376 0.289341806346123
   Si 1.3255606440267322 6.83676309440664 1.193150916015632
   Si 2.7114366129790644 5.511474493248773 2.6703480773550092
   Si 4.072481746900853 6.787534738136678 4.0725155876083
   Si 1.3574531906532485 4.072498036893 4.072550099867309
   Si 5.871581059663 5.074576903850891 0.2568174534558155
   Si 6.75001888622082 6.907836330146497 1.4173114895065448
   Si 6.787534738136678 4.072498036893 4.07248107534929
   Si 4.2799836668766246e-10 5.429991952526618 5.430020783477733
   Si 1.3575004316304766 6.787502158152383 6.787491467088157
   Si 2.715004121259383 5.429991952526618 8.14499666295759
   Si 5.429991952526618 5.429991952526618 5.4299862712187235
   Si 4.072498036893 4.072498036893 6.787491467088157
   Si 6.787502158152383 6.787502158152383 6.787491467088157
   Si 1.3574988026312618 4.072498036893 9.502536371086034
   Si 4.2799836668766246e-10 5.430024532510913 10.860041566955466
   Si 1.3574825126391141 6.787485868160235 12.217443226047871
   Si 5.429975662534471 5.430024532510913 10.860007054696455
   Si 6.7875836081131204 6.787436998183793 12.21751225056589
   Si 6.787502158152383 4.072498036893 9.502501858827022
   Si 4.072498036893 6.787502158152383 9.502501858827022
   Si 3.608803410412363 7.2376598011583875 14.97093478658204
   Si 0.7690733352758807 4.7875146622263784 15.108742236805933
   Si 2.6376429485505635 5.468077954167641 13.686630092071205
   Si 6.854893855666888 4.245497753500215 14.921202621349725
   Si 5.5838346383682875 4.890646602512656 16.825278463148486
   Si 7.990485498266279 7.5076664210043935 16.807125014909627
   Si 3.703611164711232 6.358456344969631 17.263963787414934
   Si 1.5241942922773661 5.057651602009564 17.425688233132227
   Si 0.25808397459319793 6.342133772837764 19.291904126797856
   Si 3.7624506163482625 7.5061840317189645 19.564240362639765
   Si 4.205000833021351 5.911035420644419 21.339999625442175
   Si 6.482195125322588 5.627442947347338 20.54725303599994
   Si 6.576905139668572 6.364581382017119 18.274862366054574
   Si 0.8026551540881005 8.01679383558461 25.74397094857521
   Si 3.5561215758071154 7.199655249478102 23.27989919209253
   Si 1.2528290870862526 8.037400675651288 23.412391754428995
   Si 3.5368505150965377 5.845842872069835 25.25413845645707
   Si 7.836854582322529 7.169323284099323 21.76646761001935
   Si 8.077783566185119 6.008384413718309 23.888246781648395
   Si 6.775626753876803 7.4817816234819015 25.32661420037648
   Si 1.2835080292977752 5.67017159675042 26.04826553625968
   Si 1.1273146975892103 4.20205234444264 27.893221878375613
   Si 1.7593517319220713 4.9707607838944154 30.125819913683326
   Si 4.838404597695392 7.131041802552528 26.80891572482332
   Si 5.343231454348649 6.029561403510153 28.95050493312367
   Si 7.081422486471024 7.296662152716894 30.023698139274988
   Si 0.36152053773263587 6.88413439157178 30.704935619858368
   Si 3.9576210122683224 5.530550074053579 30.843985511406597
   Si 3.930954295122747 7.2872954072320395 32.488287579642815
   Si 8.061982273801974 4.139840864431063 32.003321316044975
   Si 5.806730600923515 5.146089969378733 32.46461216996247
   Si 3.834159161781874 9.523487789297837 1.201544297406679
   Si 2.6400538673884038 10.928222682159413 2.6783238604120445
   Si 1.357518350621839 9.502489989419617 4.07248107534929
   Si 5.740625812788668 10.549447784744071 0.2485534930360531
   Si 7.516821396591329 8.865860806300356 0.33221707595848166
   Si 5.263508232778432 8.213870160585936 2.675448989236575
   Si 6.787534738136678 9.502506279411765 4.0725155876083
   Si 2.7149878312672353 8.144996073786 5.430020783477733
   Si 4.2799836668766246e-10 10.860000195045384 5.430020783477733
   Si 3.50000255285873e-08 8.144996073786 8.14499666295759
   Si 2.715004121259383 10.860000195045384 8.14499666295759
   Si 5.429991952526618 10.860000195045384 5.4299862712187235
   Si 4.072498036893 9.502506279411765 6.787491467088157
   Si 5.429991952526618 8.144996073786 8.14499666295759
   Si 2.7150204112515306 8.144996073786 10.860041566955466
   Si 4.2799836668766246e-10 10.859983905053236 10.860041566955466
   Si 4.072416586932262 9.502506279411765 12.217374201529854
   Si 1.3575085766265504 9.502506279411765 9.502501858827022
   Si 5.429943082550175 10.860016485037532 10.85990351791943
   Si 6.787502158152383 9.502506279411765 9.502467346568015
   Si 2.4605544439143077 12.019521836109558 16.54835209685835
   Si 1.526830013006843 9.740258714805579 16.980687165467092
   Si 0.04348336473927837 8.16130235592572 13.573705980592973
   Si 2.791729984274447 10.840892034256282 13.600487493584142
   Si 1.9302663295343967 8.970719485754277 14.79975398189621
   Si 5.421732926507799 8.201408316593042 13.730978344898077
   Si 4.5518799258117495 11.83487477511683 15.102668079220308
   Si 6.27164697681522 9.978532429948114 15.199060818633114
   Si 3.5410207530863165 11.326138320348155 20.186634441612394
   Si 1.3326484196101407 10.372864269864388 20.372655517672197
   Si 1.6254284484784522 8.338195380656204 19.252767225081378
   Si 7.917424883484419 11.201063760639098 21.44236298566358
   Si 8.356195821979272 9.326851294084497 18.12414733096122
   Si 5.094874234066767 9.481589929494282 19.823599989094202
   Si 6.226442248605708 10.140878491690817 17.762182758472317
   Si 0.820867365309086 11.922612672823654 25.878534246452237
   Si 0.5472720601929699 10.169141628066853 22.567428117105784
   Si 1.5412596880511624 11.999762075634553 23.696220572520986
   Si 6.576921429660719 9.218213336452338 21.727261683784853
   Si 5.415721919405344 8.655817647549563 23.68973226782725
   Si 5.05721177222158 10.525338596365664 24.972587447459695
   Si 7.170968573306228 11.644004937123727 25.109635627985387
   Si 1.7331085545723328 9.899672577961718 26.92190886081957
   Si 0.1718708201513879 9.987003225864852 28.716063157673904
   Si 4.176379316818067 9.506464747503626 26.974402006772625
   Si 5.748168079152994 10.47524687051188 28.495840432935946
   Si 7.684054455978303 9.106545440280733 28.7022237418112
   Si 1.0799368844272121 10.513055942286394 30.774546846280007
   Si 1.803399870689106 8.50388089078916 31.945651331240533
   Si 0.18769817652196885 10.480215318116889 34.47753967667638
   Si 1.9217140836569213 8.755610139445588 34.34980980608318
   Si 5.326061802625108 10.73086942729158 30.781035150973743
   Si 5.748575328956683 8.543107191880512 31.62396256501541
   Si 7.5829587647104715 11.347315310139999 31.9059277211209