# ---------Initialize Simulation---------
clear
units           metal
dimension       3
boundary        p p p   #p indicates that the boundary (x,y,z) is periodic  s is shrink-wrapped
atom_style      atomic
atom_modify     map array
variable        seed equal 251823
variable        vel_seed equal floor(random(0,100000,v_seed))
variable        anneal_seed equal floor(random(0,100000,v_seed))

# ------- Read in Interface Structure --------
read_data       aSicSiInterfaceFinalSnapshot_sw_v2.xyz

lattice         diamond 5.43 orient x 1 0 0 orient y 0 1 0 orient z 0 0 1

region          CrystallineBox block EDGE EDGE EDGE EDGE EDGE 2.97 units lattice
region          PURECRYSTALLINE block EDGE EDGE EDGE EDGE 1 2 units lattice

region          AmorphousBox block EDGE EDGE EDGE EDGE 3 EDGE units lattice
region          PUREAMORPHOUS block EDGE EDGE EDGE EDGE 3.5 5.5 units lattice

region          BlastSphere sphere 1.5 1.5 3 .5 side in
# ----------Define interatomic potential --------------
pair_style      quip
pair_coeff      * * ./potentials/gp_iter6_sparse9k.xml "Potential xml_label=GAP_2017_6_17_60_4_3_56_165" 14

# --------- Create the fixed crystalline structure -----------
create_atoms    1 region CrystallineBox

#group          fixedatoms region CrystallineBox
#group          mobileatoms subtract all fixedatoms

group           mobileatoms BlastSphere
group           fixedatoms subtract all mobileatoms

# ---------Define Potential Energy Outputs for Excess Energy Calculation --------------
compute         pe_aSi mobileatoms pe/atom
compute         pe_aSitotal mobileatoms reduce sum c_pe_aSi
variable        pe_aSiAverage equal c_pe_aSitotal/count(mobileatoms)

compute         pe_cSi fixedatoms pe/atom
compute         pe_cSitotal fixedatoms reduce sum c_pe_cSi
variable        pe_cSiAverage equal c_pe_cSitotal/count(fixedatoms)

compute         pe_aSi_pure puremobile pe/atom
compute         pe_aSi_puretotal puremobile reduce sum c_pe_aSi_pure
variable        pe_aSi_pureAverage equal c_pe_aSi_puretotal/count(puremobile)

compute         pe_cSi_pure purecrystalline pe/atom
compute         pe_cSi_puretotal purecrystalline reduce sum c_pe_cSi_pure
variable        pe_cSi_pureAverage equal c_pe_cSi_puretotal/count(purecrystalline)

variable        excessEnergy equal v_pe_aSiAverage-v_pe_cSiAverage
fix             pe_output all ave/time 100 5 10000 v_pe_aSiAverage v_pe_cSiAverage v_pe_aSi_pureAverage v_pe_cSi_pureAverage v_excessEnergy file potentialEnergy_combined.output

# ----------Dump xyz file with atoms and bonds -----------
# Read with Ovito or jmol
dump            1 all atom 100 aSicSiInterface_post_heating_2000.xyz
#dump_modify    1 element Si

# ------- Initialize conditions ----------
#set initial temperature of deposited a-Si to be 1600K, so that we avoid a large strain on the system
#velocity       mobileatoms create 300.0 ${vel_seed} mom yes rot yes dist gaussian  # mom and rot yes means net linear and angular momentum is zero
timestep        .0001 #.1 fs

# ------- Display conditions each 1000 step
thermo_style    custom step temp pe ke etotal
thermo          100

# --------Run simulation -------------
#First perform potential energy minimization with a conjugate gradient method
min_style       hftn
minimize        1.0e-2 1.0e-3 100 1000

#Anneal the a-Si at 300K for 4 ps at a pressure of 0 GPa
velocity        mobileatoms create 2000.0 ${vel_seed} mom yes rot yes dist gaussian
fix             anneal mobileatoms nvt temp 2000.0 2000.0 0.1
run             40000
unfix           anneal

#Reduce T to 0K very quickly
fix             cool mobileatoms nvt temp 2000.0 10.0 0.1
run             5000
unfix           cool

#perform a second potential energy minimization, again with the conjugate gradient method
#min_style      hftn
#minimize       1.0e-2 1.0e-3 100 1000

# --------- Dump xyz file with atoms of only the final state ------------
write_dump      all atom aSicSiInterfaceFinalSnapshot_Post_Heating_2000.xyz

