# ---------Initialize Simulation---------
clear
units 		metal
dimension 	3
boundary 	p p p   #p indicates that the boundary (x,y,z) is periodic  s is shrink-wrapped
atom_style 	atomic
atom_modify 	map array
variable	seed equal $s
variable	dump string $d
variable	dumpA string ${dA}
variable	dumpsnap string ${ds}
variable	snapTime equal $t
variable	vel_seed equal floor(random(0,100000,v_seed))
variable	anneal_seed equal floor(random(0,100000,v_seed))
print		"timestep is ${snapTime}"
print		"seed is ${seed}"

# ---------Create dummy simulation box -----------------
lattice 	diamond 5.43 orient x 1 0 0 orient y 0 1 0 orient z 0 0 1
region		BOX block 0 3 0 3 0 4 units lattice
create_box	1 BOX
mass		1 28.0855

# ---------Read in the already created amorphous structure --------------
read_dump	${dumpA} ${snapTime} x y z box yes add yes #3850000 should be whatever the last timestep is in the file

lattice 	diamond 5.43 orient x 1 0 0 orient y 0 1 0 orient z 0 0 1
region 		CrystallineBox block EDGE EDGE EDGE EDGE 0 0.87 units lattice
region		PURECRYSTALLINE block EDGE EDGE EDGE EDGE 0.25 0.75 units lattice

region		AmorphousBox block EDGE EDGE EDGE EDGE 0.87 EDGE units lattice
region		PUREAMORPHOUS block EDGE EDGE EDGE EDGE 1.5 3.5 units lattice

# ----------Define interatomic potential --------------
pair_style 	sw
pair_coeff 	* * modified_Si.sw Si

# --------- Delete the a-Si atoms to make way for the c-Si atoms --------
delete_atoms	region CrystallineBox

# --------- Create the fixed crystalline structure -----------
create_atoms 	1 region CrystallineBox

group		fixedatoms region CrystallineBox
group		mobileatoms subtract all fixedatoms

# --------- Delete any atoms within a 0.5 Angstrom cutoff radius -------
delete_atoms	overlap 0.5 mobileatoms fixedatoms
delete_atoms	overlap 0.5 fixedatoms fixedatoms

# --------- Identify the relevant groups of atoms ------------
group		puremobile region PUREAMORPHOUS
group		purecrystalline region PURECRYSTALLINE

# ---------Define Potential Energy Outputs for Excess Energy Calculation --------------
compute		pe_aSi mobileatoms pe/atom
compute		pe_aSitotal mobileatoms reduce sum c_pe_aSi
variable	pe_aSiAverage equal c_pe_aSitotal/count(mobileatoms)

compute		pe_cSi fixedatoms pe/atom
compute		pe_cSitotal fixedatoms reduce sum c_pe_cSi
variable	pe_cSiAverage equal c_pe_cSitotal/count(fixedatoms)

compute		pe_aSi_pure puremobile pe/atom
compute		pe_aSi_puretotal puremobile reduce sum c_pe_aSi_pure
variable	pe_aSi_pureAverage equal c_pe_aSi_puretotal/count(puremobile)

compute		pe_cSi_pure purecrystalline pe/atom
compute		pe_cSi_puretotal purecrystalline reduce sum c_pe_cSi_pure
variable	pe_cSi_pureAverage equal c_pe_cSi_puretotal/count(purecrystalline)

variable	excessEnergy equal v_pe_aSiAverage-v_pe_cSiAverage
fix		pe_output all ave/time 100 5 10000 v_pe_aSiAverage v_pe_cSiAverage v_pe_aSi_pureAverage v_pe_cSi_pureAverage v_excessEnergy file potentialEnergy_combined_${dumpA}.output

# ----------Dump xyz file with atoms and bonds -----------
# Read with Ovito or jmol
dump 		1 all atom 100 ${dump}
#dump_modify 	1 element Si

# ------- Initialize conditions ----------
#set initial temperature of deposited a-Si to be 1600K, so that we avoid a large strain on the system
#velocity  	mobileatoms create 300.0 ${vel_seed} mom yes rot yes dist gaussian  # mom and rot yes means net linear and angular momentum is zero
timestep 	.0001 #.1 fs

# ------- Display conditions each 1000 step
thermo_style 	custom step temp pe ke etotal
thermo 		100

# --------Run simulation -------------
#First perform potential energy minimization with a conjugate gradient method
min_style	hftn
minimize	1.0e-2 1.0e-3 100 1000

#Anneal the a-Si at 300K for 40 ps at a pressure of 0 GPa
velocity  	mobileatoms create 300.0 ${vel_seed} mom yes rot yes dist gaussian
fix		anneal mobileatoms npt temp 300.0 300.0 0.1 iso 0.0 0.0 0.1
run 		400000
unfix 		anneal

#Reduce T to 0K
fix		cool mobileatoms langevin 300.0 0.0 0.1 187215
fix		coolcouple mobileatoms nve
run		500000
unfix		cool
unfix		coolcouple

#perform a second potential energy minimization, again with the conjugate gradient method
min_style	hftn
minimize	1.0e-2 1.0e-3 100 1000

# --------- Dump xyz file with atoms of only the final state ------------
write_dump	all atom ${dumpsnap}

